42
19
0 19 20 27 30 31 33 36 38 39 40 41
1 20 21 22 23 24 25 28 30 31 34 38 39
2 19 22 23 24 26 27 30 31 32 34 39 40 41
3 19 20 22 23 28 29 30 31 33 34 36 39 41
4 19 22 25 27 30 31 34 35 40 41
5 23 24 25 26 27 31 32 33 35 41
6 19 21 22 23 25 26 27 29 30 31 32 33 35 37 38 40 41
7 19 20 22 26 30 31 33 34 39 40
8 20 23 24 28 30 31 35 37 38 41
9 22 24 26 27 28 32 33 38 40
10 21 23 33 41
11 19 20 22 24 26 30 34 35 38 41
12 23 25 26 27 30 31 32 34 39 41
13 21 22 26 34 38
14 19 28 29
15 19 27 28 29 35 37 38
16 24 36
17 21 35
18 38
